
  12    4
  10   10   10   10

   0   0   0   0   0   6 2 3 4 5 6 7 
  10  10  10  10  10   3 11 9 8 
   5  10  10  10  10   3 11 9 8 
   3  10  10  10  10   3 10 9 8 
  10  10  10  10  10   2 10 8 
   2  10  10  10  10   1 8 
   8  10  10  10  10   1 8 
   5  10  10  10  10   1 12
  10  10  10  10  10   1 12
   1  10  10  10  10   1 12
   5  10  10  10  10   1 12
   0   0   0   0   0   0 
